
Gurobi 10.0.1 (mac64[arm]) logging started Sun Mar 31 05:35:15 2024

Set parameter LogFile to value "/Users/deniserings/Documents/zib/s-bahn-data/scripts/DeniseMA/processed/BGAS_BKW/RENS/BGAS_BKW_subMBP_random2_0.6_202403301837.log"
Gurobi Optimizer version 10.0.1 build v10.0.1rc0 (mac64[arm])

CPU model: Apple M2
Thread count: 8 physical cores, 8 logical processors, using up to 8 threads

Optimize a model with 1969 rows, 1012 columns and 6868 nonzeros
Model fingerprint: 0x1e7c02c4
Variable types: 411 continuous, 601 integer (170 binary)
Coefficient statistics:
  Matrix range     [1e+00, 2e+02]
  Objective range  [1e+00, 4e+02]
  Bounds range     [1e+00, 2e+02]
  RHS range        [1e+00, 5e+02]
Presolve removed 1476 rows and 707 columns
Presolve time: 0.21s
Presolved: 493 rows, 305 columns, 1886 nonzeros
Variable types: 108 continuous, 197 integer (197 binary)
Found heuristic solution: objective 6143.0000000
Found heuristic solution: objective 5069.0000000

Root relaxation: objective 4.540000e+03, 172 iterations, 0.00 seconds (0.00 work units)

    Nodes    |    Current Node    |     Objective Bounds      |     Work
 Expl Unexpl |  Obj  Depth IntInf | Incumbent    BestBd   Gap | It/Node Time

     0     0 4540.00000    0   21 5069.00000 4540.00000  10.4%     -    0s
H    0     0                    4980.0000000 4540.00000  8.84%     -    0s
H    0     0                    4933.0000000 4540.00000  7.97%     -    0s
     0     0 4540.00000    0   33 4933.00000 4540.00000  7.97%     -    0s
     0     0 4540.00000    0   31 4933.00000 4540.00000  7.97%     -    0s
H    0     0                    4922.0000000 4540.00000  7.76%     -    0s
     0     0 4540.00000    0   10 4922.00000 4540.00000  7.76%     -    0s
     0     0 4540.00000    0   11 4922.00000 4540.00000  7.76%     -    0s
     0     0 4540.00000    0   10 4922.00000 4540.00000  7.76%     -    0s
     0     0 4540.00000    0   20 4922.00000 4540.00000  7.76%     -    0s
H    0     0                    4914.0000000 4540.00000  7.61%     -    0s
     0     0 4540.00000    0   19 4914.00000 4540.00000  7.61%     -    0s
     0     0 4540.00000    0   19 4914.00000 4540.00000  7.61%     -    0s
     0     2 4540.00000    0   19 4914.00000 4540.00000  7.61%     -    0s

Cutting planes:
  Learned: 29
  Gomory: 15
  Cover: 56
  Implied bound: 18
  MIR: 48
  StrongCG: 2
  Flow cover: 34
  Inf proof: 1
  Network: 1
  RLT: 10
  Relax-and-lift: 5

Explored 5113 nodes (46325 simplex iterations) in 0.67 seconds (0.49 work units)
Thread count was 8 (of 8 available processors)

Solution count 6: 4914 4922 4933 ... 6143

Optimal solution found (tolerance 1.00e-04)
Best objective 4.914000000000e+03, best bound 4.914000000000e+03, gap 0.0000%

User-callback calls 11256, time in user-callback 0.02 sec

Statistics for modelBGAS_BKW:
  Linear constraint matrix    : 1969 Constrs, 1012 Vars, 6868 NZs
  Variable types              : 411 Continuous,
601 Integer (170 Binary)
  Matrix coefficient range    : [ 1, 200 ]
  Objective coefficient range : [ 1, 388 ]
  Variable bound range        : [ 1, 199 ]
  RHS coefficient range       : [ 1, 549 ]
